(set-info :smt-lib-version 2.6)
(set-logic QF_LIA)
(set-info :source |
Generated by: Martin Bromberger
Generated on: 2018-01-06
Application: This is a problem with unbounded directions and, therefore, a good test for the termination/completeness of branch-and-bound solvers.
Publications: M. Bromberger. A Reduction from Unbounded Linear Mixed Arithmetic Problems into Bounded Problems. (Work in progress.)

The benchmarks in this class are based on the problems from SMT-LIB/QF_LIA/CAV_2009 and SMT-LIB/QF_LIA/cut_lemmas.
I just replaced all variables x with x_+ - x_-, where x_+ and x_- are two new variables such that x_+, x_- >= 0.
This transformation is equisatisfiable.
The new variables and an unsatisfiable status guarantee that there are bounded and unbounded directions.
Target solver: CVC4 Mathsat SPASS-IQ YICES Z3
|)
(set-info :license "https://creativecommons.org/licenses/by/4.0/")
(set-info :category "crafted")
(set-info :status unsat)
(declare-fun x9_plus () Int)
(declare-fun x9_minus () Int)
(declare-fun x8_plus () Int)
(declare-fun x8_minus () Int)
(declare-fun x7_plus () Int)
(declare-fun x7_minus () Int)
(declare-fun x5_plus () Int)
(declare-fun x5_minus () Int)
(declare-fun x4_plus () Int)
(declare-fun x4_minus () Int)
(declare-fun x3_plus () Int)
(declare-fun x3_minus () Int)
(declare-fun x2_plus () Int)
(declare-fun x2_minus () Int)
(declare-fun x1_plus () Int)
(declare-fun x1_minus () Int)
(declare-fun x0_plus () Int)
(declare-fun x0_minus () Int)
(declare-fun x6_plus () Int)
(declare-fun x6_minus () Int)
(assert (>= x9_plus 0))
(assert (>= x9_minus 0))
(assert (>= x8_plus 0))
(assert (>= x8_minus 0))
(assert (>= x7_plus 0))
(assert (>= x7_minus 0))
(assert (>= x5_plus 0))
(assert (>= x5_minus 0))
(assert (>= x4_plus 0))
(assert (>= x4_minus 0))
(assert (>= x3_plus 0))
(assert (>= x3_minus 0))
(assert (>= x2_plus 0))
(assert (>= x2_minus 0))
(assert (>= x1_plus 0))
(assert (>= x1_minus 0))
(assert (>= x0_plus 0))
(assert (>= x0_minus 0))
(assert (>= x6_plus 0))
(assert (>= x6_minus 0))
(assert (<= (+ (* 4 x9_plus) (* (- 4) x9_minus) (* 2 x8_plus) (* (- 2) x8_minus) (* 12 x7_plus) (* (- 12) x7_minus) (* 14 x5_plus) (* (- 14) x5_minus) (* (- 10) x4_plus) (* 10 x4_minus) (* 5 x3_plus) (* (- 5) x3_minus) (* 10 x2_plus) (* (- 10) x2_minus) (* (- 3) x1_plus) (* 3 x1_minus) (* 3 x0_plus) (* (- 3) x0_minus) ) (- 3) ) )
(assert (<= (+ (* 9 x9_plus) (* (- 9) x9_minus) (* 17 x8_plus) (* (- 17) x8_minus) (* 14 x7_plus) (* (- 14) x7_minus) (* 14 x6_plus) (* (- 14) x6_minus) (* 16 x4_plus) (* (- 16) x4_minus) (* 16 x3_plus) (* (- 16) x3_minus) (* (- 11) x1_plus) (* 11 x1_minus) (* 10 x0_plus) (* (- 10) x0_minus) ) 0 ) )
(assert (<= (+ (* 16 x9_plus) (* (- 16) x9_minus) (* (- 24) x8_plus) (* 24 x8_minus) (* (- 6) x6_plus) (* 6 x6_minus) (* (- 15) x5_plus) (* 15 x5_minus) (* (- 3) x4_plus) (* 3 x4_minus) (* 10 x2_plus) (* (- 10) x2_minus) (* 2 x1_plus) (* (- 2) x1_minus) (* 15 x0_plus) (* (- 15) x0_minus) ) (- 5) ) )
(assert (<= (+ (* 17 x7_plus) (* (- 17) x7_minus) (* (- 15) x6_plus) (* 15 x6_minus) (* 18 x5_plus) (* (- 18) x5_minus) (* 14 x4_plus) (* (- 14) x4_minus) (* (- 18) x3_plus) (* 18 x3_minus) (* 6 x2_plus) (* (- 6) x2_minus) (* (- 17) x0_plus) (* 17 x0_minus) ) 1 ) )
(assert (<= (+ (* 7 x8_plus) (* (- 7) x8_minus) (* 11 x6_plus) (* (- 11) x6_minus) (* 15 x5_plus) (* (- 15) x5_minus) (* 12 x4_plus) (* (- 12) x4_minus) x2_plus (* (- 1) x2_minus) (* (- 5) x1_plus) (* 5 x1_minus) (* (- 22) x0_plus) (* 22 x0_minus) ) (- 19) ) )
(assert (<= (+ (* 13 x9_plus) (* (- 13) x9_minus) (* 14 x8_plus) (* (- 14) x8_minus) (* (- 3) x7_plus) (* 3 x7_minus) (* (- 14) x6_plus) (* 14 x6_minus) (* (- 28) x5_plus) (* 28 x5_minus) (* (- 8) x2_plus) (* 8 x2_minus) (* 12 x1_plus) (* (- 12) x1_minus) ) 11 ) )
(assert (<= (+ (* 2 x7_plus) (* (- 2) x7_minus) (* 6 x5_plus) (* (- 6) x5_minus) (* (- 7) x4_plus) (* 7 x4_minus) (* 8 x3_plus) (* (- 8) x3_minus) (* 5 x2_plus) (* (- 5) x2_minus) (* (- 10) x0_plus) (* 10 x0_minus) ) (- 17) ) )
(assert (<= (+ x9_plus (* (- 1) x9_minus) (* (- 11) x8_plus) (* 11 x8_minus) (* (- 14) x6_plus) (* 14 x6_minus) (* 3 x4_plus) (* (- 3) x4_minus) (* (- 2) x3_plus) (* 2 x3_minus) (* (- 9) x1_plus) (* 9 x1_minus) ) 2 ) )
(assert (<= (+ x9_plus (* (- 1) x9_minus) (* (- 23) x5_plus) (* 23 x5_minus) (* (- 7) x4_plus) (* 7 x4_minus) (* (- 16) x3_plus) (* 16 x3_minus) x2_plus (* (- 1) x2_minus) (* 4 x1_plus) (* (- 4) x1_minus) ) (- 1) ) )
(assert (<= (+ (* 28 x9_plus) (* (- 28) x9_minus) (* (- 38) x7_plus) (* 38 x7_minus) (* 5 x6_plus) (* (- 5) x6_minus) (* (- 6) x4_plus) (* 6 x4_minus) (* (- 25) x1_plus) (* 25 x1_minus) ) 0 ) )
(assert (<= (+ (* 16 x9_plus) (* (- 16) x9_minus) (* 2 x8_plus) (* (- 2) x8_minus) (* 13 x2_plus) (* (- 13) x2_minus) ) 3 ) )
(assert (>= (+ (* 18 x9_plus) (* (- 18) x9_minus) (* (- 10) x8_plus) (* 10 x8_minus) (* 2 x7_plus) (* (- 2) x7_minus) (* 17 x6_plus) (* (- 17) x6_minus) (* (- 30) x5_plus) (* 30 x5_minus) x4_plus (* (- 1) x4_minus) (* (- 7) x3_plus) (* 7 x3_minus) x1_plus (* (- 1) x1_minus) ) (- 10) ) )
(assert (>= (+ (* 3 x9_plus) (* (- 3) x9_minus) (* 17 x7_plus) (* (- 17) x7_minus) (* (- 16) x6_plus) (* 16 x6_minus) (* 7 x4_plus) (* (- 7) x4_minus) (* (- 5) x3_plus) (* 5 x3_minus) (* (- 4) x2_plus) (* 4 x2_minus) (* 2 x1_plus) (* (- 2) x1_minus) x0_plus (* (- 1) x0_minus) ) (- 3) ) )
(assert (>= (+ x8_plus (* (- 1) x8_minus) (* 3 x7_plus) (* (- 3) x7_minus) (* 4 x5_plus) (* (- 4) x5_minus) (* 13 x4_plus) (* (- 13) x4_minus) (* 2 x3_plus) (* (- 2) x3_minus) (* (- 18) x2_plus) (* 18 x2_minus) x0_plus (* (- 1) x0_minus) ) 18 ) )
(assert (>= (+ (* 13 x8_plus) (* (- 13) x8_minus) (* 12 x7_plus) (* (- 12) x7_minus) (* (- 13) x5_plus) (* 13 x5_minus) (* 23 x4_plus) (* (- 23) x4_minus) (* (- 5) x3_plus) (* 5 x3_minus) (* (- 16) x1_plus) (* 16 x1_minus) (* (- 10) x0_plus) (* 10 x0_minus) ) 0 ) )
(assert (>= (+ (* 13 x8_plus) (* (- 13) x8_minus) (* (- 1) x6_plus) x6_minus (* (- 26) x5_plus) (* 26 x5_minus) (* (- 14) x4_plus) (* 14 x4_minus) (* 12 x3_plus) (* (- 12) x3_minus) (* (- 12) x2_plus) (* 12 x2_minus) (* (- 31) x1_plus) (* 31 x1_minus) ) (- 19) ) )
(assert (>= (+ (* 8 x9_plus) (* (- 8) x9_minus) (* 27 x7_plus) (* (- 27) x7_minus) (* (- 10) x5_plus) (* 10 x5_minus) (* (- 4) x4_plus) (* 4 x4_minus) (* (- 19) x3_plus) (* 19 x3_minus) (* 3 x1_plus) (* (- 3) x1_minus) (* (- 7) x0_plus) (* 7 x0_minus) ) 17 ) )
(assert (>= (+ (* 11 x9_plus) (* (- 11) x9_minus) (* 28 x8_plus) (* (- 28) x8_minus) (* 4 x5_plus) (* (- 4) x5_minus) (* (- 16) x4_plus) (* 16 x4_minus) (* 10 x3_plus) (* (- 10) x3_minus) (* 6 x2_plus) (* (- 6) x2_minus) ) 5 ) )
(assert (>= (+ (* 5 x9_plus) (* (- 5) x9_minus) (* 4 x8_plus) (* (- 4) x8_minus) (* 9 x7_plus) (* (- 9) x7_minus) (* (- 11) x5_plus) (* 11 x5_minus) (* (- 25) x3_plus) (* 25 x3_minus) (* (- 11) x1_plus) (* 11 x1_minus) ) 6 ) )
(assert (>= (+ (* 14 x9_plus) (* (- 14) x9_minus) (* (- 20) x7_plus) (* 20 x7_minus) (* (- 19) x4_plus) (* 19 x4_minus) (* 5 x3_plus) (* (- 5) x3_minus) (* (- 8) x1_plus) (* 8 x1_minus) ) (- 15) ) )
(check-sat)
(exit)
